NAME: bip_40_1
TYPE: TSP
COMMENT: bip_40_1
DIMENSION: 40
EDGE_WEIGHT_TYPE: EUC_2D
NODE_COORD_SECTION
1 37 19
2 84 6
3 32 61
4 54 96
5 59 76
6 67 49
7 29 36
8 87 93
9 87 38
10 42 0
11 54 41
12 60 40
13 49 33
14 60 44
15 95 75
16 12 87
17 60 46
18 73 36
19 79 51
20 82 14
21 440 406
22 460 468
23 475 416
24 461 449
25 408 446
26 460 439
27 446 437
28 453 468
29 463 410
30 476 443
31 462 483
32 408 474
33 415 499
34 496 428
35 480 472
36 428 493
37 459 467
38 438 401
39 486 468
40 463 407
